Welcome to the CBC MILP Solver 
Version: 2.10.7 
Build Date: Feb 14 2022 

command line - cbc inputs/new_tr/order/jump_2_10_tiers_input.lp sec 1800 solve solu solutions/new_tr/jump_2_10_tiers_input.lp (default strategy 1)
seconds was changed from 1e+100 to 1800
Continuous objective value is 18525.1 - 0.00 seconds
Cgl0002I 24 variables fixed
Cgl0003I 0 fixed, 1 tightened bounds, 31 strengthened rows, 0 substitutions
Cgl0003I 0 fixed, 0 tightened bounds, 3 strengthened rows, 0 substitutions
Cgl0004I processed model has 172 rows, 65 columns (65 integer (54 of which binary)) and 556 elements
Cutoff increment increased from 1e-05 to 0.9999
Cbc0045I 1 integer variables out of 65 objects (65 integer) have cost of 1 - high priority
Cbc0045I branch on satisfied Y create fake objective Y random cost Y
Cbc0038I Initial state - 33 integers unsatisfied sum - 8.74242
Cbc0038I Pass   1: suminf.    2.23932 (19) obj. 20480 iterations 34
Cbc0038I Pass   2: suminf.    2.02778 (12) obj. 20480 iterations 16
Cbc0038I Pass   3: suminf.    0.00000 (0) obj. 20480 iterations 7
Cbc0038I Solution found of 20480
Cbc0038I Cleaned solution of 20480
Cbc0038I Before mini branch and bound, 28 integers at bound fixed and 0 continuous
Cbc0038I Full problem 172 rows 65 columns, reduced to 73 rows 27 columns
Cbc0038I Mini branch and bound did not improve solution (0.01 seconds)
Cbc0038I Round again with cutoff of 20283.6
Cbc0038I Pass   4: suminf.    2.83553 (32) obj. 20283 iterations 9
Cbc0038I Pass   5: suminf.    3.04241 (27) obj. 20283.6 iterations 17
Cbc0038I Pass   6: suminf.    0.96618 (18) obj. 20283.6 iterations 15
Cbc0038I Pass   7: suminf.    2.88055 (9) obj. 20283.6 iterations 22
Cbc0038I Pass   8: suminf.    0.63740 (9) obj. 20283.6 iterations 8
Cbc0038I Pass   9: suminf.    5.42919 (29) obj. 20283.6 iterations 25
Cbc0038I Pass  10: suminf.    0.63740 (9) obj. 20283.6 iterations 18
Cbc0038I Pass  11: suminf.    2.88055 (9) obj. 20283.6 iterations 11
Cbc0038I Pass  12: suminf.    5.40936 (29) obj. 20283.6 iterations 17
Cbc0038I Pass  13: suminf.    5.47551 (22) obj. 20283.6 iterations 6
Cbc0038I Pass  14: suminf.    0.63740 (9) obj. 20283.6 iterations 30
Cbc0038I Pass  15: suminf.    0.63740 (9) obj. 20283.6 iterations 1
Cbc0038I Pass  16: suminf.    2.88055 (9) obj. 20283.6 iterations 10
Cbc0038I Pass  17: suminf.    5.46095 (21) obj. 20283.6 iterations 19
Cbc0038I Pass  18: suminf.    2.88055 (9) obj. 20283.6 iterations 24
Cbc0038I Pass  19: suminf.    0.63740 (9) obj. 20283.6 iterations 16
Cbc0038I Pass  20: suminf.    7.59558 (36) obj. 20283.6 iterations 45
Cbc0038I Pass  21: suminf.    6.09049 (29) obj. 20283.6 iterations 24
Cbc0038I Pass  22: suminf.    2.30602 (21) obj. 20283.6 iterations 15
Cbc0038I Pass  23: suminf.    2.24136 (18) obj. 20283.6 iterations 8
Cbc0038I Pass  24: suminf.    2.88055 (9) obj. 20283.6 iterations 18
Cbc0038I Pass  25: suminf.    0.63740 (9) obj. 20283.6 iterations 8
Cbc0038I Pass  26: suminf.    8.36312 (39) obj. 20283.6 iterations 54
Cbc0038I Pass  27: suminf.    6.21856 (34) obj. 20283.6 iterations 10
Cbc0038I Pass  28: suminf.    5.93027 (32) obj. 20283.6 iterations 3
Cbc0038I Pass  29: suminf.    4.81762 (32) obj. 20283.6 iterations 7
Cbc0038I Pass  30: suminf.    4.56707 (27) obj. 20283.6 iterations 8
Cbc0038I Pass  31: suminf.    4.07234 (13) obj. 20283.6 iterations 29
Cbc0038I Pass  32: suminf.    2.88055 (9) obj. 20283.6 iterations 2
Cbc0038I Pass  33: suminf.    0.63740 (9) obj. 20283.6 iterations 10
Cbc0038I Pass  34: suminf.    4.74826 (29) obj. 20283.6 iterations 20
Cbc0038I Pass  35: suminf.    2.29059 (20) obj. 20283.6 iterations 11
Cbc0038I Pass  36: suminf.    0.74700 (12) obj. 20283.6 iterations 12
Cbc0038I Pass  37: suminf.    0.74700 (12) obj. 20283.6 iterations 3
Cbc0038I Pass  38: suminf.    2.88055 (9) obj. 20283.6 iterations 9
Cbc0038I Pass  39: suminf.    0.63740 (9) obj. 20283.6 iterations 3
Cbc0038I Pass  40: suminf.    6.66656 (35) obj. 20283.6 iterations 33
Cbc0038I Pass  41: suminf.    4.55644 (23) obj. 20283.6 iterations 17
Cbc0038I Pass  42: suminf.    0.74700 (12) obj. 20283.6 iterations 19
Cbc0038I Pass  43: suminf.    0.74700 (12) obj. 20283.6 iterations 4
Cbc0038I Pass  44: suminf.    2.88055 (9) obj. 20283.6 iterations 12
Cbc0038I Pass  45: suminf.    0.63740 (9) obj. 20283.6 iterations 2
Cbc0038I Pass  46: suminf.    2.19645 (25) obj. 20283.6 iterations 29
Cbc0038I Pass  47: suminf.    0.63740 (9) obj. 20283.6 iterations 10
Cbc0038I Pass  48: suminf.    2.88055 (9) obj. 20283.6 iterations 7
Cbc0038I Pass  49: suminf.    7.24581 (31) obj. 20283.6 iterations 19
Cbc0038I Pass  50: suminf.    6.00281 (24) obj. 20283.6 iterations 14
Cbc0038I Pass  51: suminf.    2.00041 (15) obj. 20283.6 iterations 24
Cbc0038I Pass  52: suminf.    0.63740 (9) obj. 20283.6 iterations 11
Cbc0038I Pass  53: suminf.    2.88055 (9) obj. 20283.6 iterations 10
Cbc0038I Pass  54: suminf.    3.47645 (12) obj. 20283.6 iterations 23
Cbc0038I Pass  55: suminf.    2.88055 (9) obj. 20283.6 iterations 3
Cbc0038I Pass  56: suminf.    0.63740 (9) obj. 20283.6 iterations 7
Cbc0038I Pass  57: suminf.    2.18330 (26) obj. 20283.6 iterations 12
Cbc0038I Pass  58: suminf.    1.66705 (19) obj. 20283.6 iterations 5
Cbc0038I Pass  59: suminf.    4.01190 (17) obj. 20283.6 iterations 16
Cbc0038I Pass  60: suminf.    2.88055 (9) obj. 20283.6 iterations 4
Cbc0038I Pass  61: suminf.    0.63740 (9) obj. 20283.6 iterations 5
Cbc0038I Pass  62: suminf.    5.19626 (30) obj. 20283.6 iterations 31
Cbc0038I Pass  63: suminf.    0.63740 (9) obj. 20283.6 iterations 19
Cbc0038I Pass  64: suminf.    4.68740 (25) obj. 20283.6 iterations 25
Cbc0038I Pass  65: suminf.    2.58304 (20) obj. 20283.6 iterations 12
Cbc0038I Pass  66: suminf.    3.23350 (14) obj. 20283.6 iterations 25
Cbc0038I Pass  67: suminf.    3.23350 (14) obj. 20283.6 iterations 0
Cbc0038I Pass  68: suminf.    1.00883 (14) obj. 20283.6 iterations 20
Cbc0038I Pass  69: suminf.    6.03577 (30) obj. 20283.6 iterations 17
Cbc0038I Pass  70: suminf.    2.21275 (20) obj. 20283.6 iterations 14
Cbc0038I Pass  71: suminf.    2.29579 (19) obj. 20283.6 iterations 8
Cbc0038I Pass  72: suminf.    2.88055 (9) obj. 20283.6 iterations 33
Cbc0038I Pass  73: suminf.    0.63740 (9) obj. 20283.6 iterations 7
Cbc0038I Pass  74: suminf.    0.63740 (9) obj. 20283.6 iterations 20
Cbc0038I Pass  75: suminf.    0.63740 (9) obj. 20283.6 iterations 11
Cbc0038I Pass  76: suminf.    2.88055 (9) obj. 20283.6 iterations 12
Cbc0038I Pass  77: suminf.    8.75882 (37) obj. 20283.6 iterations 28
Cbc0038I Pass  78: suminf.    7.35510 (30) obj. 20283.6 iterations 13
Cbc0038I Pass  79: suminf.    7.35510 (30) obj. 20283.6 iterations 0
Cbc0038I Pass  80: suminf.    7.21617 (25) obj. 20283.6 iterations 32
Cbc0038I Pass  81: suminf.    1.41981 (19) obj. 20283.6 iterations 13
Cbc0038I Pass  82: suminf.    1.00883 (14) obj. 20283.6 iterations 2
Cbc0038I Pass  83: suminf.    3.23350 (14) obj. 20283.6 iterations 17
Cbc0038I Pass  84: suminf.    5.97720 (22) obj. 20283.6 iterations 16
Cbc0038I Pass  85: suminf.    4.29719 (17) obj. 20283.6 iterations 11
Cbc0038I Pass  86: suminf.    9.09871 (29) obj. 20283.6 iterations 14
Cbc0038I Pass  87: suminf.    4.76392 (19) obj. 20283.6 iterations 12
Cbc0038I Pass  88: suminf.    0.63740 (9) obj. 20283.6 iterations 17
Cbc0038I Pass  89: suminf.    2.88055 (9) obj. 20283.6 iterations 14
Cbc0038I Pass  90: suminf.    6.36701 (28) obj. 20283.6 iterations 29
Cbc0038I Pass  91: suminf.    5.26682 (22) obj. 20283.6 iterations 20
Cbc0038I Pass  92: suminf.    2.52781 (17) obj. 20283.6 iterations 25
Cbc0038I Pass  93: suminf.    1.00883 (14) obj. 20283.6 iterations 1
Cbc0038I Pass  94: suminf.    3.23350 (14) obj. 20283.6 iterations 15
Cbc0038I Pass  95: suminf.    6.56469 (25) obj. 20283.6 iterations 14
Cbc0038I Pass  96: suminf.    4.31998 (17) obj. 20283.6 iterations 15
Cbc0038I Pass  97: suminf.    0.63740 (9) obj. 20283.6 iterations 20
Cbc0038I Pass  98: suminf.    2.88055 (9) obj. 20283.6 iterations 19
Cbc0038I Pass  99: suminf.    9.91627 (37) obj. 20283.6 iterations 37
Cbc0038I Pass 100: suminf.    4.11433 (19) obj. 20283.6 iterations 24
Cbc0038I Pass 101: suminf.    0.63740 (9) obj. 20283.6 iterations 21
Cbc0038I Pass 102: suminf.    2.88055 (9) obj. 20283.6 iterations 8
Cbc0038I Pass 103: suminf.    8.00590 (32) obj. 20283.6 iterations 27
Cbc0038I No solution found this major pass
Cbc0038I Before mini branch and bound, 0 integers at bound fixed and 0 continuous
Cbc0038I Full problem 172 rows 65 columns, reduced to 172 rows 65 columns - 4 fixed gives 158, 58 - still too large
Cbc0038I Mini branch and bound did not improve solution (0.09 seconds)
Cbc0038I After 0.09 seconds - Feasibility pump exiting with objective of 20480 - took 0.08 seconds
Cbc0012I Integer solution of 20480 found by feasibility pump after 0 iterations and 0 nodes (0.09 seconds)
Cbc0038I Full problem 172 rows 65 columns, reduced to 72 rows 27 columns
Cbc0006I The LP relaxation is infeasible or too expensive
Cbc0013I At root node, 0 cuts changed objective from 18525.091 to 18525.091 in 1 passes
Cbc0014I Cut generator 0 (Probing) - 3 row cuts average 1.3 elements, 5 column cuts (5 active)  in 0.000 seconds - new frequency is 1
Cbc0014I Cut generator 1 (Gomory) - 0 row cuts average 0.0 elements, 0 column cuts (0 active)  in 0.000 seconds - new frequency is -100
Cbc0014I Cut generator 2 (Knapsack) - 0 row cuts average 0.0 elements, 0 column cuts (0 active)  in 0.000 seconds - new frequency is -100
Cbc0014I Cut generator 3 (Clique) - 0 row cuts average 0.0 elements, 0 column cuts (0 active)  in 0.000 seconds - new frequency is -100
Cbc0014I Cut generator 4 (MixedIntegerRounding2) - 0 row cuts average 0.0 elements, 0 column cuts (0 active)  in 0.000 seconds - new frequency is -100
Cbc0014I Cut generator 5 (FlowCover) - 0 row cuts average 0.0 elements, 0 column cuts (0 active)  in 0.000 seconds - new frequency is -100
Cbc0014I Cut generator 6 (TwoMirCuts) - 0 row cuts average 0.0 elements, 0 column cuts (0 active)  in 0.000 seconds - new frequency is -100
Cbc0014I Cut generator 7 (ZeroHalf) - 0 row cuts average 0.0 elements, 0 column cuts (0 active)  in 0.000 seconds - new frequency is -100
Cbc0001I Search completed - best objective 20480, took 0 iterations and 0 nodes (0.09 seconds)
Cbc0035I Maximum depth 0, 0 variables fixed on reduced cost
Cuts at root node changed objective from 18525.1 to 18525.1
Probing was tried 1 times and created 8 cuts of which 0 were active after adding rounds of cuts (0.000 seconds)
Gomory was tried 0 times and created 0 cuts of which 0 were active after adding rounds of cuts (0.000 seconds)
Knapsack was tried 0 times and created 0 cuts of which 0 were active after adding rounds of cuts (0.000 seconds)
Clique was tried 0 times and created 0 cuts of which 0 were active after adding rounds of cuts (0.000 seconds)
MixedIntegerRounding2 was tried 0 times and created 0 cuts of which 0 were active after adding rounds of cuts (0.000 seconds)
FlowCover was tried 0 times and created 0 cuts of which 0 were active after adding rounds of cuts (0.000 seconds)
TwoMirCuts was tried 0 times and created 0 cuts of which 0 were active after adding rounds of cuts (0.000 seconds)
ZeroHalf was tried 0 times and created 0 cuts of which 0 were active after adding rounds of cuts (0.000 seconds)

Result - Optimal solution found

Objective value:                20480.00000000
Enumerated nodes:               0
Total iterations:               0
Time (CPU seconds):             0.09
Time (Wallclock seconds):       0.10

Total time (CPU seconds):       0.09   (Wallclock seconds):       0.10

